\ Model QCP
\ LP format - for model browsing. Use MPS format to capture full model detail.
Minimize
  z + 1.27 y
Subject To
 Cut_0: z + [ ] >= 701
 Cut_1: z + [ 7.866666666666666 y ^2 ] >= 1514.333333333333
 Cut_2: z + [ 3.125 y ^2 ] >= 1135
 Cut_3: z + [ 0.5042735042735043 y ^2 ] >= 820.5128205128206
Bounds
 701 <= z <= 885
 8.944271909999159 <= y <= 15.39480431834065
End
